[2026-03-24T13:36:55.026Z] Pipeline "set_vm-3-t1_vm-3-t1_s007_g001" → 2026_03_24_13_36_55_set_vm-3-t1_vm-3-t1_s007_g001_max.sol
Set parameter Username
Set parameter LicenseID to value 2796068
Set parameter LogFile to value "gurobi.log"
Using license file /opt/gurobi/gurobi.lic
Academic license - for non-commercial use only - expires 2027-03-23

Gurobi Optimizer version 13.0.1 build v13.0.1rc0 (linux64 - "Ubuntu 24.04.4 LTS")
Copyright (c) 2026, Gurobi Optimization, LLC

Warning: Duplicate section found (read 'binary') - Is a variable name equal to an LP file format keyword?
Warning: Duplicate section found (read 'binary') - Is a variable name equal to an LP file format keyword?
Warning: Duplicate section found (read 'binary') - Is a variable name equal to an LP file format keyword?
Warning: Duplicate section found (read 'binary') - Is a variable name equal to an LP file format keyword?
Warning: Duplicate section found (read 'binary') - Is a variable name equal to an LP file format keyword?
Warning: Duplicate section found (read 'binary') - Is a variable name equal to an LP file format keyword?
Warning: Duplicate section found (read 'binary') - Is a variable name equal to an LP file format keyword?
Warning: Duplicate section found (read 'binary') - Is a variable name equal to an LP file format keyword?
Warning: Duplicate section found (read 'binary') - Is a variable name equal to an LP file format keyword?
Warning: Duplicate section found (read 'binary') - Is a variable name equal to an LP file format keyword?
Warning: Further warnings of this type will be omitted.
Read LP format model from file /root/bgw/data/uploads/2026_03_24_13_36_55_set_vm-3-t1_vm-3-t1_s007_g001_max.lp
Reading time = 0.00 seconds
: 1889 rows, 246 columns, 5512 nonzeros

Using Gurobi shared library /opt/gurobi1301/linux64/lib/libgurobi.so.13.0.1

CPU model: AMD EPYC-Genoa Processor, instruction set [SSE2|AVX|AVX2|AVX512]
Thread count: 16 physical cores, 16 logical processors, using up to 16 threads

Optimize a model with 1889 rows, 246 columns and 5512 nonzeros (Max)
Model fingerprint: 0xcff3e18b
Model has 36 linear objective coefficients
Variable types: 53 continuous, 193 integer (193 binary)
Coefficient statistics:
  Matrix range     [1e+00, 2e+01]
  Objective range  [1e+00, 1e+00]
  Bounds range     [1e+00, 1e+00]
  RHS range        [1e+00, 2e+01]

Found heuristic solution: objective 36.0000000
Presolve removed 476 rows and 79 columns
Presolve time: 0.00s
Presolved: 1413 rows, 167 columns, 4365 nonzeros
Variable types: 0 continuous, 167 integer (158 binary)
Found heuristic solution: objective 43.0000000

Root relaxation: objective 1.910000e+02, 129 iterations, 0.00 seconds (0.00 work units)

    Nodes    |    Current Node    |     Objective Bounds      |     Work
 Expl Unexpl |  Obj  Depth IntInf | Incumbent    BestBd   Gap | It/Node Time

     0     0  191.00000    0   44   43.00000  191.00000   344%     -    0s
H    0     0                      59.0000000  191.00000   224%     -    0s
H    0     0                      64.0000000  191.00000   198%     -    0s
H    0     0                      72.0000000  191.00000   165%     -    0s
H    0     0                      75.0000000  191.00000   155%     -    0s
H    0     0                      83.0000000  191.00000   130%     -    0s
H    0     0                      88.0000000  191.00000   117%     -    0s
     0     0  191.00000    0   41   88.00000  191.00000   117%     -    0s
     0     0  191.00000    0   41   88.00000  191.00000   117%     -    0s
H    0     0                      90.0000000  191.00000   112%     -    0s
     0     0  190.06667    0   41   90.00000  190.06667   111%     -    0s
     0     0  190.06667    0   40   90.00000  190.06667   111%     -    0s
     0     0  184.00000    0   44   90.00000  184.00000   104%     -    0s
     0     0  184.00000    0   32   90.00000  184.00000   104%     -    0s
H    0     0                      91.0000000  184.00000   102%     -    0s
     0     0  184.00000    0   42   91.00000  184.00000   102%     -    0s
     0     0  184.00000    0   31   91.00000  184.00000   102%     -    0s
H    0     0                      97.0000000  184.00000  89.7%     -    0s
     0     0  184.00000    0   43   97.00000  184.00000  89.7%     -    0s
     0     0  184.00000    0   31   97.00000  184.00000  89.7%     -    0s
     0     0  184.00000    0   33   97.00000  184.00000  89.7%     -    0s
     0     0  184.00000    0   33   97.00000  184.00000  89.7%     -    0s
     0     0  183.00000    0   41   97.00000  183.00000  88.7%     -    0s
     0     0  183.00000    0   40   97.00000  183.00000  88.7%     -    0s
     0     0  182.86667    0   40   97.00000  182.86667  88.5%     -    0s
     0     0  182.86667    0   40   97.00000  182.86667  88.5%     -    0s
     0     2  182.86667    0   40   97.00000  182.86667  88.5%     -    0s
H   28    33                      98.0000000  182.86667  86.6%  46.6    0s

Cutting planes:
  Inf proof: 1

Explored 32374 nodes (1395286 simplex iterations) in 4.25 seconds (7.71 work units)
Thread count was 16 (of 16 available processors)

Solution count 10: 98 98 98 ... 75

Optimal solution found (tolerance 1.00e-04)
Best objective 9.800000000000e+01, best bound 9.800000000000e+01, gap 0.0000%

Wrote result file '/root/bgw/data/results/2026_03_24_13_36_55_set_vm-3-t1_vm-3-t1_s007_g001_max.sol'

